; benchmark generated from python API
(set-info :status unknown)
(declare-fun x_months () Int)
(declare-fun x_beta () Int)
(assert
 (<= (- 1200) x_months))
(assert
 (>= 1199 x_months))
(assert
 (>= x_beta 0))
(assert
 (let ((?x2352 (+ x_months 24003)))
 (let ((?x4059 (- ?x2352 (* (div (- ?x2352 1) 12) 12))))
 (let ((?x3716 (ite (or (= ?x4059 4) (= ?x4059 6) (= ?x4059 9) (= ?x4059 11)) 30 31)))
 (let (($x1676 (and (= (mod (div (- ?x2352 1) 12) 4) 0) (and (distinct (mod (div (- ?x2352 1) 12) 100) 0) true))))
 (let ((?x2926 (ite (or $x1676 (= (mod (div (- ?x2352 1) 12) 400) 0)) 29 28)))
 (< x_beta (ite (= ?x4059 2) ?x2926 ?x3716))))))))
(assert
 (let ((?x1039 (- (+ (* 2023 12) 1) 24003)))
 (let (($x4197 (= x_months ?x1039)))
 (or (> x_months ?x1039) (and $x4197 (<= 0 x_beta))))))
(assert
 (let ((?x1039 (- (+ (* 2023 12) 1) 24003)))
 (let (($x4197 (= x_months ?x1039)))
 (or (< x_months ?x1039) (and $x4197 (>= 30 x_beta))))))
(assert
 (let ((?x4058 (+ x_beta 1)))
(let ((?x1302 (+ (+ x_months 0) 24003)))
(let ((?x4056 (- ?x1302 (* (div (- ?x1302 1) 12) 12))))
(let ((?x1658 (ite (or (= ?x4056 4) (= ?x4056 6) (= ?x4056 9) (= ?x4056 11)) 30 31)))
(let (($x2771 (and (= (mod (div (- ?x1302 1) 12) 4) 0) (and (distinct (mod (div (- ?x1302 1) 12) 100) 0) true))))
(let (($x3741 (or $x2771 (= (mod (div (- ?x1302 1) 12) 400) 0))))
(let ((?x1745 (ite (= ?x4056 2) (ite $x3741 29 28) ?x1658)))
(let (($x3951 (> 1 ?x4058)))
(let ((?x1085 (ite $x3951 1 (ite (> ?x4058 ?x1745) ?x1745 ?x4058))))
(let ((?x2100 (ite (> 1 ?x1085) 1 (ite (> ?x1085 ?x1745) ?x1745 ?x1085))))
(let ((?x1499 (ite (= 2 ?x4056) (ite $x3741 31 31) (ite (= 1 ?x4056) (ite $x3741 0 0) 0))))
(let ((?x2236 (ite (= 4 ?x4056) (ite $x3741 91 90) (ite (= 3 ?x4056) (ite $x3741 60 59) ?x1499))))
(let ((?x4261 (ite (= 6 ?x4056) (ite $x3741 152 151) (ite (= 5 ?x4056) (ite $x3741 121 120) ?x2236))))
(let ((?x3548 (ite (= 8 ?x4056) (ite $x3741 213 212) (ite (= 7 ?x4056) (ite $x3741 182 181) ?x4261))))
(let ((?x2513 (ite (= 10 ?x4056) (ite $x3741 274 273) (ite (= 9 ?x4056) (ite $x3741 244 243) ?x3548))))
(let ((?x2262 (ite (= 12 ?x4056) (ite $x3741 335 334) (ite (= 11 ?x4056) (ite $x3741 305 304) ?x2513))))
(let ((?x2012 (+ (* 365 (- (div (- ?x1302 1) 12) 1)) (div (- (div (- ?x1302 1) 12) 1) 4))))
(let ((?x1470 (+ (- ?x2012 (div (- (div (- ?x1302 1) 12) 1) 100)) (div (- (div (- ?x1302 1) 12) 1) 400))))
(let ((?x723 (+ (+ (- (+ (+ ?x1470 ?x2262) (- ?x2100 1)) 730179) 30) 730179)))
(let ((?x1254 (mod ?x723 146097)))
(let ((?x1922 (div ?x1254 36524)))
(let ((?x1686 (ite (<= 4 ?x1922) 3 ?x1922)))
(let ((?x3784 (- ?x1254 (* ?x1686 36524))))
(let ((?x3973 (mod ?x3784 1461)))
(let ((?x4041 (div ?x3973 365)))
(let ((?x2298 (ite (<= 4 ?x4041) 3 ?x4041)))
(let ((?x1763 (+ (+ (* (div ?x723 146097) 400) (* ?x1686 100)) (* (div ?x3784 1461) 4))))
(let ((?x3752 (+ (+ ?x1763 ?x2298) 1)))
(let (($x1129 (or (and (= (mod ?x3752 4) 0) (and (distinct (mod ?x3752 100) 0) true)) (= (mod ?x3752 400) 0))))
(let ((?x762 (- ?x3973 (* ?x2298 365))))
(let ((?x506 (ite $x1129 31 31)))
(let (($x2845 (>= ?x762 ?x506)))
(let ((?x3183 (ite $x2845 (+ (- ?x762 ?x506) 1) (+ (- ?x762 (ite $x1129 0 0)) 1))))
(let ((?x3074 (ite $x1129 60 59)))
(let (($x2499 (>= ?x762 ?x3074)))
(let ((?x2691 (ite $x1129 91 90)))
(let (($x1471 (>= ?x762 ?x2691)))
(let ((?x3675 (ite $x1471 (+ (- ?x762 ?x2691) 1) (ite $x2499 (+ (- ?x762 ?x3074) 1) ?x3183))))
(let ((?x4018 (ite $x1129 121 120)))
(let (($x3711 (>= ?x762 ?x4018)))
(let ((?x1731 (ite $x1129 152 151)))
(let (($x1239 (>= ?x762 ?x1731)))
(let ((?x1595 (ite $x1239 (+ (- ?x762 ?x1731) 1) (ite $x3711 (+ (- ?x762 ?x4018) 1) ?x3675))))
(let ((?x3427 (ite $x1129 182 181)))
(let (($x1362 (>= ?x762 ?x3427)))
(let ((?x1174 (ite $x1129 213 212)))
(let (($x4054 (>= ?x762 ?x1174)))
(let ((?x1799 (ite $x4054 (+ (- ?x762 ?x1174) 1) (ite $x1362 (+ (- ?x762 ?x3427) 1) ?x1595))))
(let ((?x2007 (ite $x1129 244 243)))
(let (($x2909 (>= ?x762 ?x2007)))
(let ((?x3058 (ite $x1129 274 273)))
(let (($x3211 (>= ?x762 ?x3058)))
(let ((?x1645 (ite $x3211 (+ (- ?x762 ?x3058) 1) (ite $x2909 (+ (- ?x762 ?x2007) 1) ?x1799))))
(let ((?x3301 (ite $x1129 305 304)))
(let (($x3039 (>= ?x762 ?x3301)))
(let ((?x1584 (ite $x1129 335 334)))
(let (($x2979 (>= ?x762 ?x1584)))
(let ((?x660 (ite $x2979 (+ (- ?x762 ?x1584) 1) (ite $x3039 (+ (- ?x762 ?x3301) 1) ?x1645))))
(let (($x2679 (= 30 0)))
(let ((?x3027 (+ (+ x_months 1) 24003)))
(let ((?x4009 (- ?x3027 (* (div (- ?x3027 1) 12) 12))))
(let ((?x1747 (ite (or (= ?x4009 4) (= ?x4009 6) (= ?x4009 9) (= ?x4009 11)) 30 31)))
(let (($x3858 (and (= (mod (div (- ?x3027 1) 12) 4) 0) (and (distinct (mod (div (- ?x3027 1) 12) 100) 0) true))))
(let (($x593 (or $x3858 (= (mod (div (- ?x3027 1) 12) 400) 0))))
(let ((?x3295 (ite (= ?x4009 2) (ite $x593 29 28) ?x1747)))
(let ((?x3942 (ite $x3951 1 (ite (> ?x4058 ?x3295) ?x3295 ?x4058))))
(let ((?x3692 (ite (> 1 ?x3942) 1 (ite (> ?x3942 ?x3295) ?x3295 ?x3942))))
(let ((?x2640 (ite (= 2 ?x4009) (ite $x593 31 31) (ite (= 1 ?x4009) (ite $x593 0 0) 0))))
(let ((?x2843 (ite (= 4 ?x4009) (ite $x593 91 90) (ite (= 3 ?x4009) (ite $x593 60 59) ?x2640))))
(let ((?x3359 (ite (= 6 ?x4009) (ite $x593 152 151) (ite (= 5 ?x4009) (ite $x593 121 120) ?x2843))))
(let ((?x910 (ite (= 8 ?x4009) (ite $x593 213 212) (ite (= 7 ?x4009) (ite $x593 182 181) ?x3359))))
(let ((?x3439 (ite (= 10 ?x4009) (ite $x593 274 273) (ite (= 9 ?x4009) (ite $x593 244 243) ?x910))))
(let ((?x3572 (ite (= 12 ?x4009) (ite $x593 335 334) (ite (= 11 ?x4009) (ite $x593 305 304) ?x3439))))
(let ((?x2686 (+ (* 365 (- (div (- ?x3027 1) 12) 1)) (div (- (div (- ?x3027 1) 12) 1) 4))))
(let ((?x1256 (+ (- ?x2686 (div (- (div (- ?x3027 1) 12) 1) 100)) (div (- (div (- ?x3027 1) 12) 1) 400))))
(let ((?x427 (+ (+ (- (+ (+ ?x1256 ?x3572) (- ?x3692 1)) 730179) 0) 730179)))
(let ((?x2233 (mod ?x427 146097)))
(let ((?x2392 (div ?x2233 36524)))
(let ((?x1964 (ite (<= 4 ?x2392) 3 ?x2392)))
(let ((?x2882 (- ?x2233 (* ?x1964 36524))))
(let ((?x1667 (mod ?x2882 1461)))
(let ((?x1886 (div ?x1667 365)))
(let ((?x518 (ite (<= 4 ?x1886) 3 ?x1886)))
(let ((?x1496 (+ (+ (* (div ?x427 146097) 400) (* ?x1964 100)) (* (div ?x2882 1461) 4))))
(let ((?x1051 (+ (+ ?x1496 ?x518) 1)))
(let (($x2941 (or (and (= (mod ?x1051 4) 0) (and (distinct (mod ?x1051 100) 0) true)) (= (mod ?x1051 400) 0))))
(let ((?x1049 (- ?x1667 (* ?x518 365))))
(let ((?x1580 (ite $x2941 31 31)))
(let (($x3796 (>= ?x1049 ?x1580)))
(let ((?x3318 (ite $x3796 (+ (- ?x1049 ?x1580) 1) (+ (- ?x1049 (ite $x2941 0 0)) 1))))
(let ((?x3847 (ite $x2941 60 59)))
(let (($x3440 (>= ?x1049 ?x3847)))
(let ((?x3111 (ite $x2941 91 90)))
(let (($x3713 (>= ?x1049 ?x3111)))
(let ((?x3771 (ite $x3713 (+ (- ?x1049 ?x3111) 1) (ite $x3440 (+ (- ?x1049 ?x3847) 1) ?x3318))))
(let ((?x3612 (ite $x2941 121 120)))
(let (($x2753 (>= ?x1049 ?x3612)))
(let ((?x3002 (ite $x2941 152 151)))
(let (($x2029 (>= ?x1049 ?x3002)))
(let ((?x3345 (ite $x2029 (+ (- ?x1049 ?x3002) 1) (ite $x2753 (+ (- ?x1049 ?x3612) 1) ?x3771))))
(let ((?x3715 (ite $x2941 182 181)))
(let (($x691 (>= ?x1049 ?x3715)))
(let ((?x4170 (ite $x2941 213 212)))
(let (($x3149 (>= ?x1049 ?x4170)))
(let ((?x1617 (ite $x3149 (+ (- ?x1049 ?x4170) 1) (ite $x691 (+ (- ?x1049 ?x3715) 1) ?x3345))))
(let ((?x2479 (ite $x2941 244 243)))
(let (($x3827 (>= ?x1049 ?x2479)))
(let ((?x449 (ite $x2941 274 273)))
(let (($x3852 (>= ?x1049 ?x449)))
(let ((?x3216 (ite $x3852 (+ (- ?x1049 ?x449) 1) (ite $x3827 (+ (- ?x1049 ?x2479) 1) ?x1617))))
(let ((?x3316 (ite $x2941 305 304)))
(let (($x3890 (>= ?x1049 ?x3316)))
(let ((?x2154 (ite $x2941 335 334)))
(let (($x3870 (>= ?x1049 ?x2154)))
(let ((?x913 (ite $x3870 (+ (- ?x1049 ?x2154) 1) (ite $x3890 (+ (- ?x1049 ?x3316) 1) ?x3216))))
(let (($x4045 (= 0 0)))
(let ((?x1361 (ite $x3711 5 (ite $x1471 4 (ite $x2499 3 (ite $x2845 2 1))))))
(let ((?x3584 (ite $x2909 9 (ite $x4054 8 (ite $x1362 7 (ite $x1239 6 ?x1361))))))
(let ((?x3310 (ite $x2979 12 (ite $x3039 11 (ite $x3211 10 ?x3584)))))
(let ((?x3701 (+ (* (ite $x2679 (div (- ?x1302 1) 12) ?x3752) 12) (ite $x2679 ?x4056 ?x3310))))
(let ((?x2291 (ite $x2753 5 (ite $x3713 4 (ite $x3440 3 (ite $x3796 2 1))))))
(let ((?x3004 (ite $x3827 9 (ite $x3149 8 (ite $x691 7 (ite $x2029 6 ?x2291))))))
(let ((?x3610 (+ (* (ite $x4045 (div (- ?x3027 1) 12) ?x1051) 12) (ite $x4045 ?x4009 (ite $x3870 12 (ite $x3890 11 (ite $x3852 10 ?x3004)))))))
(let (($x3341 (and (= (- ?x3610 24003) (- ?x3701 24003)) (= (- (ite $x4045 ?x3692 ?x913) 1) (- (ite $x2679 ?x2100 ?x660) 1)))))
(not $x3341))))))))))))))))))))))))))))))))))))))))))))))))))))))))))))))))))))))))))))))))))))))))))))))))))))))))))))))))))))))))))))))
(check-sat)
